(set-logic HORN)

(declare-fun inv-f
             (Int
              Int
              Int
              Int
              Int
              Int
              Int
              Int
              Int
              Int
              Int
              Int
              Int
              Int
              Int
              Int
              Int
              Int
              Int
              Int
              Int
              Int
              Int)
             Bool)
(assert (forall ((A Int)
         (B Int)
         (C Int)
         (D Int)
         (E Int)
         (F Int)
         (G Int)
         (H Int)
         (I Int)
         (J Int)
         (K Int)
         (L Int)
         (M Int)
         (N Int)
         (O Int)
         (P Int)
         (Q Int)
         (R Int)
         (S Int)
         (T Int)
         (U Int)
         (V Int)
         (W Int))
  (let ((a!1 (and (inv-f W V U T S R Q P O N M L K J I H G F E D C B A)
                     (= (- W Q) 0)
                     (= (- V P) 0)
                     (= (- U N) 0)
                     (= (- T L) 0)
                     (= (- S F) 0)
                     (< (- (+ (- 1) P) F) 0)
                     (= (- R C) 0)
                     (< (- C Q) 0))))
       (=> a!1 false))
    ))
(assert (forall ((A Int)
         (B Int)
         (C Int)
         (D Int)
         (E Int)
         (F Int)
         (G Int)
         (H Int)
         (I Int)
         (J Int)
         (K Int)
         (L Int)
         (M Int)
         (N Int)
         (O Int)
         (P Int)
         (Q Int)
         (R Int)
         (S Int)
         (T Int)
         (U Int)
         (V Int)
         (W Int))
  (=> (and (= (- W Q) 0)
              (= (- U N) 0)
              (= (- T M) 0)
              (= (- S G) 0)
              (= (- R D) 0)
              (= (+ (- 6) M) 0)
              (>= (- D Q) 0)
              (= N 0)
              (= G 0))
         (inv-f W V U T S R Q P O N M L K J I H G F E D C B A))
    ))
(assert (forall ((A Int)
         (B Int)
         (C Int)
         (D Int)
         (E Int)
         (F Int)
         (G Int)
         (H Int)
         (I Int)
         (J Int)
         (K Int)
         (L Int)
         (M Int)
         (N Int)
         (O Int)
         (P Int)
         (Q Int)
         (R Int)
         (S Int)
         (T Int)
         (U Int)
         (V Int)
         (W Int)
         (X Int)
         (Y Int)
         (Z Int)
         (A1 Int)
         (B1 Int)
         (C1 Int)
         (D1 Int)
         (E1 Int)
         (F1 Int)
         (G1 Int)
         (H1 Int)
         (I1 Int)
         (J1 Int)
         (K1 Int)
         (L1 Int)
         (M1 Int)
         (N1 Int)
         (O1 Int)
         (P1 Int)
         (Q1 Int)
         (R1 Int)
         (S1 Int)
         (T1 Int))
  (let ((a!1 (and (= (- R A1) 0) (= (- K Z) 0) (= (- H Y) 0))))
     (let ((a!2 (and a!1 (>= (- (+ (- 1) V) K) 0))))
     (let ((a!3 (and a!2
                     (>= (- (+ (- 1) W) H) 0)
                     (= (- G W) 0)
                     (= (- Q R) 0)
                     (= (- P Q) 0)
                     (= (- F G) 0)
                     (= (+ (- (- 1) K) J) 0)
                     (= (- O P) 0)
                     (= (- O M) 0)
                     (= (- J E) 0)
                     (= (- F D) 0)
                     (= (- D1 W) 0)
                     (= (- T1 W) 0)
                     (= (- C1 V) 0)
                     (= (- I1 V) 0)
                     (= (- B1 T) 0)
                     (= (- X T) 0)))
           (a!4 (and a!2
                     (< (- (+ (- 1) W) H) 0)
                     (= (- P R) 0)
                     (= (- F H) 0)
                     (= (+ (- (- 1) K) J) 0)
                     (= (- O P) 0)
                     (= (- O M) 0)
                     (= (- J E) 0)
                     (= (- F D) 0)
                     (= (- D1 W) 0)
                     (= (- T1 W) 0)
                     (= (- C1 V) 0)
                     (= (- I1 V) 0)
                     (= (- B1 T) 0)
                     (= (- X T) 0))))
     (let ((a!5 (or (and a!1
                         (= (- R M) 0)
                         (= (- K E) 0)
                         (= (- H D) 0)
                         (= (- C1 V) 0)
                         (= (- I1 V) 0)
                         (= (- D1 T1) 0)
                         (= (- B1 X) 0)
                         (= (- A1 M) 0)
                         (= (- Y D) 0))
                    a!3
                    a!4)))
       (=> (and (inv-f D1 C1 B1 A1 Z Y W V U T S R Q P O N L K J I H G F) a!5)
           (inv-f T1 I1 X M E D C B A S1 R1 Q1 P1 O1 N1 M1 L1 K1 J1 H1 G1 F1 E1))))))
    ))


(check-sat)
(exit)
